c File: instances/36_0.35_3.col
c
c Description: Random graph of size 36 vertices and P(0.35) of edges between any two vertices.
p col 36 630
e 1 10
e 1 20
e 1 24
e 1 26
e 1 29
e 1 33
e 1 36
e 2 4
e 2 6
e 2 8
e 2 9
e 2 12
e 2 18
e 2 20
e 2 24
e 2 26
e 2 27
e 2 34
e 3 6
e 3 9
e 3 10
e 3 13
e 3 15
e 3 18
e 3 23
e 3 24
e 3 26
e 3 34
e 3 35
e 4 8
e 4 12
e 4 16
e 4 19
e 4 20
e 4 22
e 4 25
e 4 27
e 4 28
e 4 29
e 4 35
e 4 36
e 5 7
e 5 8
e 5 10
e 5 17
e 5 21
e 5 24
e 5 25
e 5 30
e 5 31
e 5 32
e 5 33
e 5 35
e 6 9
e 6 12
e 6 13
e 6 15
e 6 17
e 6 18
e 6 21
e 6 23
e 6 24
e 6 27
e 6 32
e 6 33
e 7 11
e 7 13
e 7 16
e 7 19
e 7 21
e 7 33
e 7 34
e 8 12
e 8 14
e 8 15
e 8 20
e 8 28
e 8 31
e 9 10
e 9 17
e 9 18
e 9 19
e 9 20
e 9 25
e 9 26
e 9 27
e 9 35
e 9 36
e 10 11
e 10 13
e 10 16
e 10 18
e 10 19
e 10 21
e 10 27
e 10 32
e 10 34
e 11 14
e 11 17
e 11 18
e 11 21
e 11 26
e 11 28
e 11 29
e 11 35
e 11 36
e 12 16
e 12 20
e 12 22
e 12 28
e 12 30
e 12 32
e 12 34
e 13 17
e 13 19
e 13 20
e 13 24
e 13 25
e 13 36
e 14 15
e 14 16
e 14 20
e 14 21
e 14 24
e 14 31
e 14 34
e 14 36
e 15 19
e 15 20
e 15 26
e 15 30
e 15 34
e 16 17
e 16 20
e 16 23
e 16 24
e 16 29
e 16 30
e 16 33
e 16 35
e 17 19
e 17 24
e 17 32
e 17 35
e 18 23
e 18 27
e 18 28
e 18 29
e 18 33
e 18 34
e 18 36
e 19 22
e 19 25
e 19 28
e 19 36
e 20 22
e 20 23
e 20 24
e 20 25
e 20 27
e 20 30
e 20 33
e 20 34
e 20 35
e 21 24
e 21 27
e 21 28
e 21 29
e 21 35
e 22 30
e 22 31
e 22 32
e 22 36
e 23 24
e 23 25
e 23 31
e 23 32
e 23 34
e 24 29
e 24 32
e 24 34
e 24 36
e 25 26
e 25 28
e 26 33
e 26 36
e 27 28
e 27 29
e 27 30
e 27 31
e 27 32
e 28 29
e 28 35
e 28 36
e 29 33
e 29 35
e 29 36
e 30 31
e 30 33
e 30 35
e 32 33
e 32 34
e 33 36